# Solution for model r5_t18_m9_8 Batch Number: 2
# Finished Task: 16 / 18
# Makespan: 680.0, Total Distance: 300.0, Total Time: 0.8987
# R O S F Batch
0 0 17 0.0 0.0 -1
1 1 15 0.0 0.0 -1
2 2 6 0.0 0.0 -1
3 3 9 0.0 0.0 -1
4 4 19 0.0 0.0 -1
5 2 -1 567.0 592.0 1
6 2 5 299.0 336.0 0
7 -1 -1 -1.0 -1.0 0
8 1 14 535.0 567.0 1
9 3 22 382.0 418.0 0
10 4 11 383.0 415.0 0
11 4 -1 612.0 648.0 1
12 -1 -1 -1.0 -1.0 0
13 1 -1 643.0 680.0 1
14 1 13 601.0 624.0 1
15 1 18 238.0 277.0 0
16 3 -1 612.0 643.0 1
17 0 20 431.0 463.0 0
18 1 8 463.0 501.0 1
19 4 10 200.0 231.0 0
20 0 -1 592.0 612.0 1
21 3 16 567.0 601.0 1
22 3 21 501.0 535.0 1
